c description: Random 5-CNF over 15 variables and 15 clauses
c generator: CNFgen (0.9.0)
c copyright: (C) 2012-2020 Massimo Lauria <massimo.lauria@uniroma1.it>
c url: https://massimolauria.net/cnfgen
c
p cnf 15 15
-6 9 -10 14 -15 0
-1 -6 -7 -9 -10 0
-6 -7 9 12 -13 0
-5 -10 -11 13 -14 0
5 -8 -10 14 15 0
-1 3 -8 10 -11 0
1 2 -5 -10 13 0
-2 -7 9 12 13 0
2 -4 5 -8 -10 0
3 -5 8 -11 -15 0
-6 -7 -9 12 15 0
-5 -7 -8 10 -12 0
2 6 8 -10 15 0
2 5 -10 -11 15 0
4 -5 -8 12 -14 0